nK = 586;
nT = 4;
nI = 7;
L = 29;
TT = 126;
np = 1;
nc = 3;
b = [36, 63, 43, 51, 22, 33, 39];
d = [75, 110, 144, 103, 122, 59, 127];
m = [2.1, 1.6, 2, 2.3, 1.8, 2, 1.2];
pt = [0.24, 0.21, 0.23, 0.2];
st = [12, 9.24, 11.5, 8.8];
arc = {<1, 0, 1, 1, 0, 0, 0, [1, 1, 1, 1]>, <2, 1, 2, 1, 0, 0, 0, [1, 1, 1, 1]>, <3, 2, 3, 1, 0, 0, 0, [1, 1, 1, 1]>, <4, 3, 4, 1, 0, 0, 0, [1, 1, 1, 1]>, <5, 4, 5, 1, 0, 0, 0, [1, 1, 1, 1]>, <6, 5, 6, 1, 0, 0, 0, [1, 1, 1, 1]>, <7, 6, 7, 1, 0, 0, 0, [1, 1, 1, 1]>, <8, 7, 8, 1, 0, 0, 0, [1, 1, 1, 1]>, <9, 8, 9, 1, 0, 0, 0, [1, 1, 1, 1]>, <10, 9, 10, 1, 0, 0, 0, [1, 1, 1, 1]>, <11, 10, 11, 1, 0, 0, 0, [1, 1, 1, 1]>, <12, 11, 12, 1, 0, 0, 0, [1, 1, 1, 1]>, <13, 12, 13, 1, 0, 0, 0, [1, 1, 1, 1]>, <14, 13, 14, 1, 0, 0, 0, [1, 1, 1, 1]>, <15, 14, 15, 1, 0, 0, 0, [1, 1, 1, 1]>, <16, 15, 16, 1, 0, 0, 0, [1, 1, 1, 1]>, <17, 16, 17, 1, 0, 0, 0, [1, 1, 1, 1]>, <18, 17, 18, 1, 0, 0, 0, [1, 1, 1, 1]>, <19, 18, 19, 1, 0, 0, 0, [1, 1, 1, 1]>, <20, 19, 20, 1, 0, 0, 0, [1, 1, 1, 1]>, <21, 20, 21, 1, 0, 0, 0, [1, 1, 1, 1]>, <22, 21, 22, 1, 0, 0, 0, [1, 1, 1, 1]>, <23, 22, 23, 1, 0, 0, 0, [1, 1, 1, 1]>, <24, 23, 24, 1, 0, 0, 0, [1, 1, 1, 1]>, <25, 24, 25, 1, 0, 0, 0, [1, 1, 1, 1]>, <26, 25, 26, 1, 0, 0, 0, [1, 1, 1, 1]>, <27, 26, 27, 1, 0, 0, 0, [1, 1, 1, 1]>, <28, 27, 28, 1, 0, 0, 0, [1, 1, 1, 1]>, <29, 28, 29, 1, 0, 0, 0, [1, 1, 1, 1]>, <30, 2, 12, 10, 1, 0, 0, [0, 0, 1, 1]>, <31, 3, 13, 10, 1, 0, 0, [0, 0, 1, 1]>, <32, 4, 14, 10, 1, 0, 0, [0, 0, 1, 1]>, <33, 5, 15, 10, 1, 0, 0, [0, 0, 1, 1]>, <34, 10, 20, 10, 1, 0, 0, [0, 0, 1, 1]>, <35, 11, 21, 10, 1, 0, 0, [0, 0, 1, 1]>, <36, 12, 22, 10, 1, 0, 0, [0, 0, 1, 1]>, <37, 14, 24, 10, 1, 0, 0, [0, 0, 1, 1]>, <38, 15, 25, 10, 1, 0, 0, [0, 0, 1, 1]>, <39, 16, 26, 10, 1, 0, 0, [0, 0, 1, 1]>, <40, 17, 27, 10, 1, 0, 0, [0, 0, 1, 1]>, <41, 18, 28, 10, 1, 0, 0, [0, 0, 1, 1]>, <42, 19, 29, 10, 1, 0, 0, [0, 0, 1, 1]>, <43, 3, 12, 9, 2, 0, 0, [1, 1, 0, 0]>, <44, 4, 13, 9, 2, 0, 0, [1, 1, 0, 0]>, <45, 5, 14, 9, 2, 0, 0, [1, 1, 0, 0]>, <46, 11, 20, 9, 2, 0, 0, [1, 1, 0, 0]>, <47, 12, 21, 9, 2, 0, 0, [1, 1, 0, 0]>, <48, 15, 24, 9, 2, 0, 0, [1, 1, 0, 0]>, <49, 16, 25, 9, 2, 0, 0, [1, 1, 0, 0]>, <50, 17, 26, 9, 2, 0, 0, [1, 1, 0, 0]>, <51, 18, 27, 9, 2, 0, 0, [1, 1, 0, 0]>, <52, 19, 28, 9, 2, 0, 0, [1, 1, 0, 0]>, <53, 20, 29, 9, 2, 0, 0, [1, 1, 0, 0]>, <54, 1, 12, 11, 3, 0, 0, [1, 0, 0, 1]>, <55, 2, 13, 11, 3, 0, 0, [1, 0, 0, 1]>, <56, 3, 14, 11, 3, 0, 0, [1, 0, 0, 1]>, <57, 4, 15, 11, 3, 0, 0, [1, 0, 0, 1]>, <58, 5, 16, 11, 3, 0, 0, [1, 0, 0, 1]>, <59, 9, 20, 11, 3, 0, 0, [1, 0, 0, 1]>, <60, 10, 21, 11, 3, 0, 0, [1, 0, 0, 1]>, <61, 11, 22, 11, 3, 0, 0, [1, 0, 0, 1]>, <62, 12, 23, 11, 3, 0, 0, [1, 0, 0, 1]>, <63, 13, 24, 11, 3, 0, 0, [1, 0, 0, 1]>, <64, 14, 25, 11, 3, 0, 0, [1, 0, 0, 1]>, <65, 15, 26, 11, 3, 0, 0, [1, 0, 0, 1]>, <66, 16, 27, 11, 3, 0, 0, [1, 0, 0, 1]>, <67, 17, 28, 11, 3, 0, 0, [1, 0, 0, 1]>, <68, 18, 29, 11, 3, 0, 0, [1, 0, 0, 1]>, <69, 0, 12, 12, 4, 0, 1, [1, 1, 0, 0]>, <70, 1, 13, 12, 4, 0, 1, [1, 1, 0, 0]>, <71, 2, 14, 12, 4, 0, 1, [1, 1, 0, 0]>, <72, 3, 15, 12, 4, 0, 1, [1, 1, 0, 0]>, <73, 4, 16, 12, 4, 0, 1, [1, 1, 0, 0]>, <74, 5, 17, 12, 4, 0, 1, [1, 1, 0, 0]>, <75, 8, 20, 12, 4, 0, 1, [1, 1, 0, 0]>, <76, 9, 21, 12, 4, 0, 1, [1, 1, 0, 0]>, <77, 10, 22, 12, 4, 0, 1, [1, 1, 0, 0]>, <78, 11, 23, 12, 4, 0, 1, [1, 1, 0, 0]>, <79, 12, 24, 12, 4, 0, 1, [1, 1, 0, 0]>, <80, 13, 25, 12, 4, 0, 1, [1, 1, 0, 0]>, <81, 14, 26, 12, 4, 0, 1, [1, 1, 0, 0]>, <82, 15, 27, 12, 4, 0, 1, [1, 1, 0, 0]>, <83, 16, 28, 12, 4, 0, 1, [1, 1, 0, 0]>, <84, 17, 29, 12, 4, 0, 1, [1, 1, 0, 0]>, <85, 2, 12, 10, 5, 0, 0, [0, 1, 1, 0]>, <86, 3, 13, 10, 5, 0, 0, [0, 1, 1, 0]>, <87, 4, 14, 10, 5, 0, 0, [0, 1, 1, 0]>, <88, 5, 15, 10, 5, 0, 0, [0, 1, 1, 0]>, <89, 10, 20, 10, 5, 0, 0, [0, 1, 1, 0]>, <90, 11, 21, 10, 5, 0, 0, [0, 1, 1, 0]>, <91, 12, 22, 10, 5, 0, 0, [0, 1, 1, 0]>, <92, 14, 24, 10, 5, 0, 0, [0, 1, 1, 0]>, <93, 15, 25, 10, 5, 0, 0, [0, 1, 1, 0]>, <94, 16, 26, 10, 5, 0, 0, [0, 1, 1, 0]>, <95, 17, 27, 10, 5, 0, 0, [0, 1, 1, 0]>, <96, 18, 28, 10, 5, 0, 0, [0, 1, 1, 0]>, <97, 19, 29, 10, 5, 0, 0, [0, 1, 1, 0]>, <98, 0, 12, 12, 6, 0, 0, [0, 0, 1, 1]>, <99, 1, 13, 12, 6, 0, 0, [0, 0, 1, 1]>, <100, 2, 14, 12, 6, 0, 0, [0, 0, 1, 1]>, <101, 3, 15, 12, 6, 0, 0, [0, 0, 1, 1]>, <102, 4, 16, 12, 6, 0, 0, [0, 0, 1, 1]>, <103, 5, 17, 12, 6, 0, 0, [0, 0, 1, 1]>, <104, 8, 20, 12, 6, 0, 0, [0, 0, 1, 1]>, <105, 9, 21, 12, 6, 0, 0, [0, 0, 1, 1]>, <106, 10, 22, 12, 6, 0, 0, [0, 0, 1, 1]>, <107, 11, 23, 12, 6, 0, 0, [0, 0, 1, 1]>, <108, 12, 24, 12, 6, 0, 0, [0, 0, 1, 1]>, <109, 13, 25, 12, 6, 0, 0, [0, 0, 1, 1]>, <110, 14, 26, 12, 6, 0, 0, [0, 0, 1, 1]>, <111, 15, 27, 12, 6, 0, 0, [0, 0, 1, 1]>, <112, 16, 28, 12, 6, 0, 0, [0, 0, 1, 1]>, <113, 17, 29, 12, 6, 0, 0, [0, 0, 1, 1]>, <114, 2, 12, 10, 7, 0, 0, [1, 1, 0, 0]>, <115, 3, 13, 10, 7, 0, 0, [1, 1, 0, 0]>, <116, 4, 14, 10, 7, 0, 0, [1, 1, 0, 0]>, <117, 5, 15, 10, 7, 0, 0, [1, 1, 0, 0]>, <118, 10, 20, 10, 7, 0, 0, [1, 1, 0, 0]>, <119, 11, 21, 10, 7, 0, 0, [1, 1, 0, 0]>, <120, 12, 22, 10, 7, 0, 0, [1, 1, 0, 0]>, <121, 14, 24, 10, 7, 0, 0, [1, 1, 0, 0]>, <122, 15, 25, 10, 7, 0, 0, [1, 1, 0, 0]>, <123, 16, 26, 10, 7, 0, 0, [1, 1, 0, 0]>, <124, 17, 27, 10, 7, 0, 0, [1, 1, 0, 0]>, <125, 18, 28, 10, 7, 0, 0, [1, 1, 0, 0]>, <126, 19, 29, 10, 7, 0, 0, [1, 1, 0, 0]>};
